c description: There is a graph of 4 vertices with a 4-clique and a 5-coloring
c generator: CNFgen (0.9.0)
c copyright: (C) 2012-2020 Massimo Lauria <massimo.lauria@uniroma1.it>
c url: https://massimolauria.net/cnfgen
c
p cnf 42 198
-7 -8 0
-7 -9 0
-7 -10 0
-8 -9 0
-8 -10 0
-9 -10 0
7 8 9 10 0
-11 -12 0
-11 -13 0
-11 -14 0
-12 -13 0
-12 -14 0
-13 -14 0
11 12 13 14 0
-15 -16 0
-15 -17 0
-15 -18 0
-16 -17 0
-16 -18 0
-17 -18 0
15 16 17 18 0
-19 -20 0
-19 -21 0
-19 -22 0
-20 -21 0
-20 -22 0
-21 -22 0
19 20 21 22 0
-7 -11 0
-7 -15 0
-7 -19 0
-11 -15 0
-11 -19 0
-15 -19 0
-8 -12 0
-8 -16 0
-8 -20 0
-12 -16 0
-12 -20 0
-16 -20 0
-9 -13 0
-9 -17 0
-9 -21 0
-13 -17 0
-13 -21 0
-17 -21 0
-10 -14 0
-10 -18 0
-10 -22 0
-14 -18 0
-14 -22 0
-18 -22 0
1 -7 -12 0
1 -7 -16 0
1 -7 -20 0
1 -11 -8 0
1 -11 -16 0
1 -11 -20 0
1 -15 -8 0
1 -15 -12 0
1 -15 -20 0
1 -19 -8 0
1 -19 -12 0
1 -19 -16 0
2 -7 -13 0
2 -7 -17 0
2 -7 -21 0
2 -11 -9 0
2 -11 -17 0
2 -11 -21 0
2 -15 -9 0
2 -15 -13 0
2 -15 -21 0
2 -19 -9 0
2 -19 -13 0
2 -19 -17 0
3 -7 -14 0
3 -7 -18 0
3 -7 -22 0
3 -11 -10 0
3 -11 -18 0
3 -11 -22 0
3 -15 -10 0
3 -15 -14 0
3 -15 -22 0
3 -19 -10 0
3 -19 -14 0
3 -19 -18 0
4 -8 -13 0
4 -8 -17 0
4 -8 -21 0
4 -12 -9 0
4 -12 -17 0
4 -12 -21 0
4 -16 -9 0
4 -16 -13 0
4 -16 -21 0
4 -20 -9 0
4 -20 -13 0
4 -20 -17 0
5 -8 -14 0
5 -8 -18 0
5 -8 -22 0
5 -12 -10 0
5 -12 -18 0
5 -12 -22 0
5 -16 -10 0
5 -16 -14 0
5 -16 -22 0
5 -20 -10 0
5 -20 -14 0
5 -20 -18 0
6 -9 -14 0
6 -9 -18 0
6 -9 -22 0
6 -13 -10 0
6 -13 -18 0
6 -13 -22 0
6 -17 -10 0
6 -17 -14 0
6 -17 -22 0
6 -21 -10 0
6 -21 -14 0
6 -21 -18 0
-23 -24 0
-23 -25 0
-23 -26 0
-23 -27 0
-24 -25 0
-24 -26 0
-24 -27 0
-25 -26 0
-25 -27 0
-26 -27 0
23 24 25 26 27 0
-28 -29 0
-28 -30 0
-28 -31 0
-28 -32 0
-29 -30 0
-29 -31 0
-29 -32 0
-30 -31 0
-30 -32 0
-31 -32 0
28 29 30 31 32 0
-33 -34 0
-33 -35 0
-33 -36 0
-33 -37 0
-34 -35 0
-34 -36 0
-34 -37 0
-35 -36 0
-35 -37 0
-36 -37 0
33 34 35 36 37 0
-38 -39 0
-38 -40 0
-38 -41 0
-38 -42 0
-39 -40 0
-39 -41 0
-39 -42 0
-40 -41 0
-40 -42 0
-41 -42 0
38 39 40 41 42 0
-1 -23 -28 0
-1 -24 -29 0
-1 -25 -30 0
-1 -26 -31 0
-1 -27 -32 0
-2 -23 -33 0
-2 -24 -34 0
-2 -25 -35 0
-2 -26 -36 0
-2 -27 -37 0
-3 -23 -38 0
-3 -24 -39 0
-3 -25 -40 0
-3 -26 -41 0
-3 -27 -42 0
-4 -28 -33 0
-4 -29 -34 0
-4 -30 -35 0
-4 -31 -36 0
-4 -32 -37 0
-5 -28 -38 0
-5 -29 -39 0
-5 -30 -40 0
-5 -31 -41 0
-5 -32 -42 0
-6 -33 -38 0
-6 -34 -39 0
-6 -35 -40 0
-6 -36 -41 0
-6 -37 -42 0